certificates/rado_a31_c24_N267.cnf
c Rad2 upper bound instance: x1 + 31*x2 - x3 = 24, interval [1,267]
p cnf 267 2448
1 8 0
-1 -8 0
1 2 39 0
-1 -2 -39 0
1 3 70 0
-1 -3 -70 0
1 4 101 0
-1 -4 -101 0
1 5 132 0
-1 -5 -132 0
1 6 163 0
-1 -6 -163 0
1 7 194 0
-1 -7 -194 0
1 8 225 0
-1 -8 -225 0
1 9 256 0
-1 -9 -256 0
1 2 9 0
-1 -2 -9 0
2 40 0
-2 -40 0
2 3 71 0
-2 -3 -71 0
2 4 102 0
-2 -4 -102 0
2 5 133 0
-2 -5 -133 0
2 6 164 0
-2 -6 -164 0
2 7 195 0
-2 -7 -195 0
2 8 226 0
-2 -8 -226 0
2 9 257 0
-2 -9 -257 0
1 3 10 0
-1 -3 -10 0
2 3 41 0
-2 -3 -41 0
3 72 0
-3 -72 0
3 4 103 0
-3 -4 -103 0
3 5 134 0
-3 -5 -134 0
3 6 165 0
-3 -6 -165 0
3 7 196 0
-3 -7 -196 0
3 8 227 0
-3 -8 -227 0
3 9 258 0
-3 -9 -258 0
1 4 11 0
-1 -4 -11 0
2 4 42 0
-2 -4 -42 0
3 4 73 0
-3 -4 -73 0
4 104 0
-4 -104 0
4 5 135 0
-4 -5 -135 0
4 6 166 0
-4 -6 -166 0
4 7 197 0
-4 -7 -197 0
4 8 228 0
-4 -8 -228 0
4 9 259 0
-4 -9 -259 0
1 5 12 0
-1 -5 -12 0
2 5 43 0
-2 -5 -43 0
3 5 74 0
-3 -5 -74 0
4 5 105 0
-4 -5 -105 0
5 136 0
-5 -136 0
5 6 167 0
-5 -6 -167 0
5 7 198 0
-5 -7 -198 0
5 8 229 0
-5 -8 -229 0
5 9 260 0
-5 -9 -260 0
1 6 13 0
-1 -6 -13 0
2 6 44 0
-2 -6 -44 0
3 6 75 0
-3 -6 -75 0
4 6 106 0
-4 -6 -106 0
5 6 137 0
-5 -6 -137 0
6 168 0
-6 -168 0
6 7 199 0
-6 -7 -199 0
6 8 230 0
-6 -8 -230 0
6 9 261 0
-6 -9 -261 0
1 7 14 0
-1 -7 -14 0
2 7 45 0
-2 -7 -45 0
3 7 76 0
-3 -7 -76 0
4 7 107 0
-4 -7 -107 0
5 7 138 0
-5 -7 -138 0
6 7 169 0
-6 -7 -169 0
7 200 0
-7 -200 0
7 8 231 0
-7 -8 -231 0
7 9 262 0
-7 -9 -262 0
1 8 15 0
-1 -8 -15 0
2 8 46 0
-2 -8 -46 0
3 8 77 0
-3 -8 -77 0
4 8 108 0
-4 -8 -108 0
5 8 139 0
-5 -8 -139 0
6 8 170 0
-6 -8 -170 0
7 8 201 0
-7 -8 -201 0
8 232 0
-8 -232 0
8 9 263 0
-8 -9 -263 0
1 9 16 0
-1 -9 -16 0
2 9 47 0
-2 -9 -47 0
3 9 78 0
-3 -9 -78 0
4 9 109 0
-4 -9 -109 0
5 9 140 0
-5 -9 -140 0
6 9 171 0
-6 -9 -171 0
7 9 202 0
-7 -9 -202 0
8 9 233 0
-8 -9 -233 0
9 264 0
-9 -264 0
1 10 17 0
-1 -10 -17 0
2 10 48 0
-2 -10 -48 0
3 10 79 0
-3 -10 -79 0
4 10 110 0
-4 -10 -110 0
5 10 141 0
-5 -10 -141 0
6 10 172 0
-6 -10 -172 0
7 10 203 0
-7 -10 -203 0
8 10 234 0
-8 -10 -234 0
9 10 265 0
-9 -10 -265 0
1 11 18 0
-1 -11 -18 0
2 11 49 0
-2 -11 -49 0
3 11 80 0
-3 -11 -80 0
4 11 111 0
-4 -11 -111 0
5 11 142 0
-5 -11 -142 0
6 11 173 0
-6 -11 -173 0
7 11 204 0
-7 -11 -204 0
8 11 235 0
-8 -11 -235 0
9 11 266 0
-9 -11 -266 0
1 12 19 0
-1 -12 -19 0
2 12 50 0
-2 -12 -50 0
3 12 81 0
-3 -12 -81 0
4 12 112 0
-4 -12 -112 0
5 12 143 0
-5 -12 -143 0
6 12 174 0
-6 -12 -174 0
7 12 205 0
-7 -12 -205 0
8 12 236 0
-8 -12 -236 0
9 12 267 0
-9 -12 -267 0
1 13 20 0
-1 -13 -20 0
2 13 51 0
-2 -13 -51 0
3 13 82 0
-3 -13 -82 0
4 13 113 0
-4 -13 -113 0
5 13 144 0
-5 -13 -144 0
6 13 175 0
-6 -13 -175 0
7 13 206 0
-7 -13 -206 0
8 13 237 0
-8 -13 -237 0
1 14 21 0
-1 -14 -21 0
2 14 52 0
-2 -14 -52 0
3 14 83 0
-3 -14 -83 0
4 14 114 0
-4 -14 -114 0
5 14 145 0
-5 -14 -145 0
6 14 176 0
-6 -14 -176 0
7 14 207 0
-7 -14 -207 0
8 14 238 0
-8 -14 -238 0
1 15 22 0
-1 -15 -22 0
2 15 53 0
-2 -15 -53 0
3 15 84 0
-3 -15 -84 0
4 15 115 0
-4 -15 -115 0
5 15 146 0
-5 -15 -146 0
6 15 177 0
-6 -15 -177 0
7 15 208 0
-7 -15 -208 0
8 15 239 0
-8 -15 -239 0
1 16 23 0
-1 -16 -23 0
2 16 54 0
-2 -16 -54 0
3 16 85 0
-3 -16 -85 0
4 16 116 0
-4 -16 -116 0
5 16 147 0
-5 -16 -147 0
6 16 178 0
-6 -16 -178 0
7 16 209 0
-7 -16 -209 0
8 16 240 0
-8 -16 -240 0
1 17 24 0
-1 -17 -24 0
2 17 55 0
-2 -17 -55 0
3 17 86 0
-3 -17 -86 0
4 17 117 0
-4 -17 -117 0
5 17 148 0
-5 -17 -148 0
6 17 179 0
-6 -17 -179 0
7 17 210 0
-7 -17 -210 0
8 17 241 0
-8 -17 -241 0
1 18 25 0
-1 -18 -25 0
2 18 56 0
-2 -18 -56 0
3 18 87 0
-3 -18 -87 0
4 18 118 0
-4 -18 -118 0
5 18 149 0
-5 -18 -149 0
6 18 180 0
-6 -18 -180 0
7 18 211 0
-7 -18 -211 0
8 18 242 0
-8 -18 -242 0
1 19 26 0
-1 -19 -26 0
2 19 57 0
-2 -19 -57 0
3 19 88 0
-3 -19 -88 0
4 19 119 0
-4 -19 -119 0
5 19 150 0
-5 -19 -150 0
6 19 181 0
-6 -19 -181 0
7 19 212 0
-7 -19 -212 0
8 19 243 0
-8 -19 -243 0
1 20 27 0
-1 -20 -27 0
2 20 58 0
-2 -20 -58 0
3 20 89 0
-3 -20 -89 0
4 20 120 0
-4 -20 -120 0
5 20 151 0
-5 -20 -151 0
6 20 182 0
-6 -20 -182 0
7 20 213 0
-7 -20 -213 0
8 20 244 0
-8 -20 -244 0
1 21 28 0
-1 -21 -28 0
2 21 59 0
-2 -21 -59 0
3 21 90 0
-3 -21 -90 0
4 21 121 0
-4 -21 -121 0
5 21 152 0
-5 -21 -152 0
6 21 183 0
-6 -21 -183 0
7 21 214 0
-7 -21 -214 0
8 21 245 0
-8 -21 -245 0
1 22 29 0
-1 -22 -29 0
2 22 60 0
-2 -22 -60 0
3 22 91 0
-3 -22 -91 0
4 22 122 0
-4 -22 -122 0
5 22 153 0
-5 -22 -153 0
6 22 184 0
-6 -22 -184 0
7 22 215 0
-7 -22 -215 0
8 22 246 0
-8 -22 -246 0
1 23 30 0
-1 -23 -30 0
2 23 61 0
-2 -23 -61 0
3 23 92 0
-3 -23 -92 0
4 23 123 0
-4 -23 -123 0
5 23 154 0
-5 -23 -154 0
6 23 185 0
-6 -23 -185 0
7 23 216 0
-7 -23 -216 0
8 23 247 0
-8 -23 -247 0
1 24 31 0
-1 -24 -31 0
2 24 62 0
-2 -24 -62 0
3 24 93 0
-3 -24 -93 0
4 24 124 0
-4 -24 -124 0
5 24 155 0
-5 -24 -155 0
6 24 186 0
-6 -24 -186 0
7 24 217 0
-7 -24 -217 0
8 24 248 0
-8 -24 -248 0
1 25 32 0
-1 -25 -32 0
2 25 63 0
-2 -25 -63 0
3 25 94 0
-3 -25 -94 0
4 25 125 0
-4 -25 -125 0
5 25 156 0
-5 -25 -156 0
6 25 187 0
-6 -25 -187 0
7 25 218 0
-7 -25 -218 0
8 25 249 0
-8 -25 -249 0
1 26 33 0
-1 -26 -33 0
2 26 64 0
-2 -26 -64 0
3 26 95 0
-3 -26 -95 0
4 26 126 0
-4 -26 -126 0
5 26 157 0
-5 -26 -157 0
6 26 188 0
-6 -26 -188 0
7 26 219 0
-7 -26 -219 0
8 26 250 0
-8 -26 -250 0
1 27 34 0
-1 -27 -34 0
2 27 65 0
-2 -27 -65 0
3 27 96 0
-3 -27 -96 0
4 27 127 0
-4 -27 -127 0
5 27 158 0
-5 -27 -158 0
6 27 189 0
-6 -27 -189 0
7 27 220 0
-7 -27 -220 0
8 27 251 0
-8 -27 -251 0
1 28 35 0
-1 -28 -35 0
2 28 66 0
-2 -28 -66 0
3 28 97 0
-3 -28 -97 0
4 28 128 0
-4 -28 -128 0
5 28 159 0
-5 -28 -159 0
6 28 190 0
-6 -28 -190 0
7 28 221 0
-7 -28 -221 0
8 28 252 0
-8 -28 -252 0
1 29 36 0
-1 -29 -36 0
2 29 67 0
-2 -29 -67 0
3 29 98 0
-3 -29 -98 0
4 29 129 0
-4 -29 -129 0
5 29 160 0
-5 -29 -160 0
6 29 191 0
-6 -29 -191 0
7 29 222 0
-7 -29 -222 0
8 29 253 0
-8 -29 -253 0
1 30 37 0
-1 -30 -37 0
2 30 68 0
-2 -30 -68 0
3 30 99 0
-3 -30 -99 0
4 30 130 0
-4 -30 -130 0
5 30 161 0
-5 -30 -161 0
6 30 192 0
-6 -30 -192 0
7 30 223 0
-7 -30 -223 0
8 30 254 0
-8 -30 -254 0
1 31 38 0
-1 -31 -38 0
2 31 69 0
-2 -31 -69 0
3 31 100 0
-3 -31 -100 0
4 31 131 0
-4 -31 -131 0
5 31 162 0
-5 -31 -162 0
6 31 193 0
-6 -31 -193 0
7 31 224 0
-7 -31 -224 0
8 31 255 0
-8 -31 -255 0
1 32 39 0
-1 -32 -39 0
2 32 70 0
-2 -32 -70 0
3 32 101 0
-3 -32 -101 0
4 32 132 0
-4 -32 -132 0
5 32 163 0
-5 -32 -163 0
6 32 194 0
-6 -32 -194 0
7 32 225 0
-7 -32 -225 0
8 32 256 0
-8 -32 -256 0
1 33 40 0
-1 -33 -40 0
2 33 71 0
-2 -33 -71 0
3 33 102 0
-3 -33 -102 0
4 33 133 0
-4 -33 -133 0
5 33 164 0
-5 -33 -164 0
6 33 195 0
-6 -33 -195 0
7 33 226 0
-7 -33 -226 0
8 33 257 0
-8 -33 -257 0
1 34 41 0
-1 -34 -41 0
2 34 72 0
-2 -34 -72 0
3 34 103 0
-3 -34 -103 0
4 34 134 0
-4 -34 -134 0
5 34 165 0
-5 -34 -165 0
6 34 196 0
-6 -34 -196 0
7 34 227 0
-7 -34 -227 0
8 34 258 0
-8 -34 -258 0
1 35 42 0
-1 -35 -42 0
2 35 73 0
-2 -35 -73 0
3 35 104 0
-3 -35 -104 0
4 35 135 0
-4 -35 -135 0
5 35 166 0
-5 -35 -166 0
6 35 197 0
-6 -35 -197 0
7 35 228 0
-7 -35 -228 0
8 35 259 0
-8 -35 -259 0
1 36 43 0
-1 -36 -43 0
2 36 74 0
-2 -36 -74 0
3 36 105 0
-3 -36 -105 0
4 36 136 0
-4 -36 -136 0
5 36 167 0
-5 -36 -167 0
6 36 198 0
-6 -36 -198 0
7 36 229 0
-7 -36 -229 0
8 36 260 0
-8 -36 -260 0
1 37 44 0
-1 -37 -44 0
2 37 75 0
-2 -37 -75 0
3 37 106 0
-3 -37 -106 0
4 37 137 0
-4 -37 -137 0
5 37 168 0
-5 -37 -168 0
6 37 199 0
-6 -37 -199 0
7 37 230 0
-7 -37 -230 0
8 37 261 0
-8 -37 -261 0
1 38 45 0
-1 -38 -45 0
2 38 76 0
-2 -38 -76 0
3 38 107 0
-3 -38 -107 0
4 38 138 0
-4 -38 -138 0
5 38 169 0
-5 -38 -169 0
6 38 200 0
-6 -38 -200 0
7 38 231 0
-7 -38 -231 0
8 38 262 0
-8 -38 -262 0
1 39 46 0
-1 -39 -46 0
2 39 77 0
-2 -39 -77 0
3 39 108 0
-3 -39 -108 0
4 39 139 0
-4 -39 -139 0
5 39 170 0
-5 -39 -170 0
6 39 201 0
-6 -39 -201 0
7 39 232 0
-7 -39 -232 0
8 39 263 0
-8 -39 -263 0
1 40 47 0
-1 -40 -47 0
2 40 78 0
-2 -40 -78 0
3 40 109 0
-3 -40 -109 0
4 40 140 0
-4 -40 -140 0
5 40 171 0
-5 -40 -171 0
6 40 202 0
-6 -40 -202 0
7 40 233 0
-7 -40 -233 0
8 40 264 0
-8 -40 -264 0
1 41 48 0
-1 -41 -48 0
2 41 79 0
-2 -41 -79 0
3 41 110 0
-3 -41 -110 0
4 41 141 0
-4 -41 -141 0
5 41 172 0
-5 -41 -172 0
6 41 203 0
-6 -41 -203 0
7 41 234 0
-7 -41 -234 0
8 41 265 0
-8 -41 -265 0
1 42 49 0
-1 -42 -49 0
2 42 80 0
-2 -42 -80 0
3 42 111 0
-3 -42 -111 0
4 42 142 0
-4 -42 -142 0
5 42 173 0
-5 -42 -173 0
6 42 204 0
-6 -42 -204 0
7 42 235 0
-7 -42 -235 0
8 42 266 0
-8 -42 -266 0
1 43 50 0
-1 -43 -50 0
2 43 81 0
-2 -43 -81 0
3 43 112 0
-3 -43 -112 0
4 43 143 0
-4 -43 -143 0
5 43 174 0
-5 -43 -174 0
6 43 205 0
-6 -43 -205 0
7 43 236 0
-7 -43 -236 0
8 43 267 0
-8 -43 -267 0
1 44 51 0
-1 -44 -51 0
2 44 82 0
-2 -44 -82 0
3 44 113 0
-3 -44 -113 0
4 44 144 0
-4 -44 -144 0
5 44 175 0
-5 -44 -175 0
6 44 206 0
-6 -44 -206 0
7 44 237 0
-7 -44 -237 0
1 45 52 0
-1 -45 -52 0
2 45 83 0
-2 -45 -83 0
3 45 114 0
-3 -45 -114 0
4 45 145 0
-4 -45 -145 0
5 45 176 0
-5 -45 -176 0
6 45 207 0
-6 -45 -207 0
7 45 238 0
-7 -45 -238 0
1 46 53 0
-1 -46 -53 0
2 46 84 0
-2 -46 -84 0
3 46 115 0
-3 -46 -115 0
4 46 146 0
-4 -46 -146 0
5 46 177 0
-5 -46 -177 0
6 46 208 0
-6 -46 -208 0
7 46 239 0
-7 -46 -239 0
1 47 54 0
-1 -47 -54 0
2 47 85 0
-2 -47 -85 0
3 47 116 0
-3 -47 -116 0
4 47 147 0
-4 -47 -147 0
5 47 178 0
-5 -47 -178 0
6 47 209 0
-6 -47 -209 0
7 47 240 0
-7 -47 -240 0
1 48 55 0
-1 -48 -55 0
2 48 86 0
-2 -48 -86 0
3 48 117 0
-3 -48 -117 0
4 48 148 0
-4 -48 -148 0
5 48 179 0
-5 -48 -179 0
6 48 210 0
-6 -48 -210 0
7 48 241 0
-7 -48 -241 0
1 49 56 0
-1 -49 -56 0
2 49 87 0
-2 -49 -87 0
3 49 118 0
-3 -49 -118 0
4 49 149 0
-4 -49 -149 0
5 49 180 0
-5 -49 -180 0
6 49 211 0
-6 -49 -211 0
7 49 242 0
-7 -49 -242 0
1 50 57 0
-1 -50 -57 0
2 50 88 0
-2 -50 -88 0
3 50 119 0
-3 -50 -119 0
4 50 150 0
-4 -50 -150 0
5 50 181 0
-5 -50 -181 0
6 50 212 0
-6 -50 -212 0
7 50 243 0
-7 -50 -243 0
1 51 58 0
-1 -51 -58 0
2 51 89 0
-2 -51 -89 0
3 51 120 0
-3 -51 -120 0
4 51 151 0
-4 -51 -151 0
5 51 182 0
-5 -51 -182 0
6 51 213 0
-6 -51 -213 0
7 51 244 0
-7 -51 -244 0
1 52 59 0
-1 -52 -59 0
2 52 90 0
-2 -52 -90 0
3 52 121 0
-3 -52 -121 0
4 52 152 0
-4 -52 -152 0
5 52 183 0
-5 -52 -183 0
6 52 214 0
-6 -52 -214 0
7 52 245 0
-7 -52 -245 0
1 53 60 0
-1 -53 -60 0
2 53 91 0
-2 -53 -91 0
3 53 122 0
-3 -53 -122 0
4 53 153 0
-4 -53 -153 0
5 53 184 0
-5 -53 -184 0
6 53 215 0
-6 -53 -215 0
7 53 246 0
-7 -53 -246 0
1 54 61 0
-1 -54 -61 0
2 54 92 0
-2 -54 -92 0
3 54 123 0
-3 -54 -123 0
4 54 154 0
-4 -54 -154 0
5 54 185 0
-5 -54 -185 0
6 54 216 0
-6 -54 -216 0
7 54 247 0
-7 -54 -247 0
1 55 62 0
-1 -55 -62 0
2 55 93 0
-2 -55 -93 0
3 55 124 0
-3 -55 -124 0
4 55 155 0
-4 -55 -155 0
5 55 186 0
-5 -55 -186 0
6 55 217 0
-6 -55 -217 0
7 55 248 0
-7 -55 -248 0
1 56 63 0
-1 -56 -63 0
2 56 94 0
-2 -56 -94 0
3 56 125 0
-3 -56 -125 0
4 56 156 0
-4 -56 -156 0
5 56 187 0
-5 -56 -187 0
6 56 218 0
-6 -56 -218 0
7 56 249 0
-7 -56 -249 0
1 57 64 0
-1 -57 -64 0
2 57 95 0
-2 -57 -95 0
3 57 126 0
-3 -57 -126 0
4 57 157 0
-4 -57 -157 0
5 57 188 0
-5 -57 -188 0
6 57 219 0
-6 -57 -219 0
7 57 250 0
-7 -57 -250 0
1 58 65 0
-1 -58 -65 0
2 58 96 0
-2 -58 -96 0
3 58 127 0
-3 -58 -127 0
4 58 158 0
-4 -58 -158 0
5 58 189 0
-5 -58 -189 0
6 58 220 0
-6 -58 -220 0
7 58 251 0
-7 -58 -251 0
1 59 66 0
-1 -59 -66 0
2 59 97 0
-2 -59 -97 0
3 59 128 0
-3 -59 -128 0
4 59 159 0
-4 -59 -159 0
5 59 190 0
-5 -59 -190 0
6 59 221 0
-6 -59 -221 0
7 59 252 0
-7 -59 -252 0
1 60 67 0
-1 -60 -67 0
2 60 98 0
-2 -60 -98 0
3 60 129 0
-3 -60 -129 0
4 60 160 0
-4 -60 -160 0
5 60 191 0
-5 -60 -191 0
6 60 222 0
-6 -60 -222 0
7 60 253 0
-7 -60 -253 0
1 61 68 0
-1 -61 -68 0
2 61 99 0
-2 -61 -99 0
3 61 130 0
-3 -61 -130 0
4 61 161 0
-4 -61 -161 0
5 61 192 0
-5 -61 -192 0
6 61 223 0
-6 -61 -223 0
7 61 254 0
-7 -61 -254 0
1 62 69 0
-1 -62 -69 0
2 62 100 0
-2 -62 -100 0
3 62 131 0
-3 -62 -131 0
4 62 162 0
-4 -62 -162 0
5 62 193 0
-5 -62 -193 0
6 62 224 0
-6 -62 -224 0
7 62 255 0
-7 -62 -255 0
1 63 70 0
-1 -63 -70 0
2 63 101 0
-2 -63 -101 0
3 63 132 0
-3 -63 -132 0
4 63 163 0
-4 -63 -163 0
5 63 194 0
-5 -63 -194 0
6 63 225 0
-6 -63 -225 0
7 63 256 0
-7 -63 -256 0
1 64 71 0
-1 -64 -71 0
2 64 102 0
-2 -64 -102 0
3 64 133 0
-3 -64 -133 0
4 64 164 0
-4 -64 -164 0
5 64 195 0
-5 -64 -195 0
6 64 226 0
-6 -64 -226 0
7 64 257 0
-7 -64 -257 0
1 65 72 0
-1 -65 -72 0
2 65 103 0
-2 -65 -103 0
3 65 134 0
-3 -65 -134 0
4 65 165 0
-4 -65 -165 0
5 65 196 0
-5 -65 -196 0
6 65 227 0
-6 -65 -227 0
7 65 258 0
-7 -65 -258 0
1 66 73 0
-1 -66 -73 0
2 66 104 0
-2 -66 -104 0
3 66 135 0
-3 -66 -135 0
4 66 166 0
-4 -66 -166 0
5 66 197 0
-5 -66 -197 0
6 66 228 0
-6 -66 -228 0
7 66 259 0
-7 -66 -259 0
1 67 74 0
-1 -67 -74 0
2 67 105 0
-2 -67 -105 0
3 67 136 0
-3 -67 -136 0
4 67 167 0
-4 -67 -167 0
5 67 198 0
-5 -67 -198 0
6 67 229 0
-6 -67 -229 0
7 67 260 0
-7 -67 -260 0
1 68 75 0
-1 -68 -75 0
2 68 106 0
-2 -68 -106 0
3 68 137 0
-3 -68 -137 0
4 68 168 0
-4 -68 -168 0
5 68 199 0
-5 -68 -199 0
6 68 230 0
-6 -68 -230 0
7 68 261 0
-7 -68 -261 0
1 69 76 0
-1 -69 -76 0
2 69 107 0
-2 -69 -107 0
3 69 138 0
-3 -69 -138 0
4 69 169 0
-4 -69 -169 0
5 69 200 0
-5 -69 -200 0
6 69 231 0
-6 -69 -231 0
7 69 262 0
-7 -69 -262 0
1 70 77 0
-1 -70 -77 0
2 70 108 0
-2 -70 -108 0
3 70 139 0
-3 -70 -139 0
4 70 170 0
-4 -70 -170 0
5 70 201 0
-5 -70 -201 0
6 70 232 0
-6 -70 -232 0
7 70 263 0
-7 -70 -263 0
1 71 78 0
-1 -71 -78 0
2 71 109 0
-2 -71 -109 0
3 71 140 0
-3 -71 -140 0
4 71 171 0
-4 -71 -171 0
5 71 202 0
-5 -71 -202 0
6 71 233 0
-6 -71 -233 0
7 71 264 0
-7 -71 -264 0
1 72 79 0
-1 -72 -79 0
2 72 110 0
-2 -72 -110 0
3 72 141 0
-3 -72 -141 0
4 72 172 0
-4 -72 -172 0
5 72 203 0
-5 -72 -203 0
6 72 234 0
-6 -72 -234 0
7 72 265 0
-7 -72 -265 0
1 73 80 0
-1 -73 -80 0
2 73 111 0
-2 -73 -111 0
3 73 142 0
-3 -73 -142 0
4 73 173 0
-4 -73 -173 0
5 73 204 0
-5 -73 -204 0
6 73 235 0
-6 -73 -235 0
7 73 266 0
-7 -73 -266 0
1 74 81 0
-1 -74 -81 0
2 74 112 0
-2 -74 -112 0
3 74 143 0
-3 -74 -143 0
4 74 174 0
-4 -74 -174 0
5 74 205 0
-5 -74 -205 0
6 74 236 0
-6 -74 -236 0
7 74 267 0
-7 -74 -267 0
1 75 82 0
-1 -75 -82 0
2 75 113 0
-2 -75 -113 0
3 75 144 0
-3 -75 -144 0
4 75 175 0
-4 -75 -175 0
5 75 206 0
-5 -75 -206 0
6 75 237 0
-6 -75 -237 0
1 76 83 0
-1 -76 -83 0
2 76 114 0
-2 -76 -114 0
3 76 145 0
-3 -76 -145 0
4 76 176 0
-4 -76 -176 0
5 76 207 0
-5 -76 -207 0
6 76 238 0
-6 -76 -238 0
1 77 84 0
-1 -77 -84 0
2 77 115 0
-2 -77 -115 0
3 77 146 0
-3 -77 -146 0
4 77 177 0
-4 -77 -177 0
5 77 208 0
-5 -77 -208 0
6 77 239 0
-6 -77 -239 0
1 78 85 0
-1 -78 -85 0
2 78 116 0
-2 -78 -116 0
3 78 147 0
-3 -78 -147 0
4 78 178 0
-4 -78 -178 0
5 78 209 0
-5 -78 -209 0
6 78 240 0
-6 -78 -240 0
1 79 86 0
-1 -79 -86 0
2 79 117 0
-2 -79 -117 0
3 79 148 0
-3 -79 -148 0
4 79 179 0
-4 -79 -179 0
5 79 210 0
-5 -79 -210 0
6 79 241 0
-6 -79 -241 0
1 80 87 0
-1 -80 -87 0
2 80 118 0
-2 -80 -118 0
3 80 149 0
-3 -80 -149 0
4 80 180 0
-4 -80 -180 0
5 80 211 0
-5 -80 -211 0
6 80 242 0
-6 -80 -242 0
1 81 88 0
-1 -81 -88 0
2 81 119 0
-2 -81 -119 0
3 81 150 0
-3 -81 -150 0
4 81 181 0
-4 -81 -181 0
5 81 212 0
-5 -81 -212 0
6 81 243 0
-6 -81 -243 0
1 82 89 0
-1 -82 -89 0
2 82 120 0
-2 -82 -120 0
3 82 151 0
-3 -82 -151 0
4 82 182 0
-4 -82 -182 0
5 82 213 0
-5 -82 -213 0
6 82 244 0
-6 -82 -244 0
1 83 90 0
-1 -83 -90 0
2 83 121 0
-2 -83 -121 0
3 83 152 0
-3 -83 -152 0
4 83 183 0
-4 -83 -183 0
5 83 214 0
-5 -83 -214 0
6 83 245 0
-6 -83 -245 0
1 84 91 0
-1 -84 -91 0
2 84 122 0
-2 -84 -122 0
3 84 153 0
-3 -84 -153 0
4 84 184 0
-4 -84 -184 0
5 84 215 0
-5 -84 -215 0
6 84 246 0
-6 -84 -246 0
1 85 92 0
-1 -85 -92 0
2 85 123 0
-2 -85 -123 0
3 85 154 0
-3 -85 -154 0
4 85 185 0
-4 -85 -185 0
5 85 216 0
-5 -85 -216 0
6 85 247 0
-6 -85 -247 0
1 86 93 0
-1 -86 -93 0
2 86 124 0
-2 -86 -124 0
3 86 155 0
-3 -86 -155 0
4 86 186 0
-4 -86 -186 0
5 86 217 0
-5 -86 -217 0
6 86 248 0
-6 -86 -248 0
1 87 94 0
-1 -87 -94 0
2 87 125 0
-2 -87 -125 0
3 87 156 0
-3 -87 -156 0
4 87 187 0
-4 -87 -187 0
5 87 218 0
-5 -87 -218 0
6 87 249 0
-6 -87 -249 0
1 88 95 0
-1 -88 -95 0
2 88 126 0
-2 -88 -126 0
3 88 157 0
-3 -88 -157 0
4 88 188 0
-4 -88 -188 0
5 88 219 0
-5 -88 -219 0
6 88 250 0
-6 -88 -250 0
1 89 96 0
-1 -89 -96 0
2 89 127 0
-2 -89 -127 0
3 89 158 0
-3 -89 -158 0
4 89 189 0
-4 -89 -189 0
5 89 220 0
-5 -89 -220 0
6 89 251 0
-6 -89 -251 0
1 90 97 0
-1 -90 -97 0
2 90 128 0
-2 -90 -128 0
3 90 159 0
-3 -90 -159 0
4 90 190 0
-4 -90 -190 0
5 90 221 0
-5 -90 -221 0
6 90 252 0
-6 -90 -252 0
1 91 98 0
-1 -91 -98 0
2 91 129 0
-2 -91 -129 0
3 91 160 0
-3 -91 -160 0
4 91 191 0
-4 -91 -191 0
5 91 222 0
-5 -91 -222 0
6 91 253 0
-6 -91 -253 0
1 92 99 0
-1 -92 -99 0
2 92 130 0
-2 -92 -130 0
3 92 161 0
-3 -92 -161 0
4 92 192 0
-4 -92 -192 0
5 92 223 0
-5 -92 -223 0
6 92 254 0
-6 -92 -254 0
1 93 100 0
-1 -93 -100 0
2 93 131 0
-2 -93 -131 0
3 93 162 0
-3 -93 -162 0
4 93 193 0
-4 -93 -193 0
5 93 224 0
-5 -93 -224 0
6 93 255 0
-6 -93 -255 0
1 94 101 0
-1 -94 -101 0
2 94 132 0
-2 -94 -132 0
3 94 163 0
-3 -94 -163 0
4 94 194 0
-4 -94 -194 0
5 94 225 0
-5 -94 -225 0
6 94 256 0
-6 -94 -256 0
1 95 102 0
-1 -95 -102 0
2 95 133 0
-2 -95 -133 0
3 95 164 0
-3 -95 -164 0
4 95 195 0
-4 -95 -195 0
5 95 226 0
-5 -95 -226 0
6 95 257 0
-6 -95 -257 0
1 96 103 0
-1 -96 -103 0
2 96 134 0
-2 -96 -134 0
3 96 165 0
-3 -96 -165 0
4 96 196 0
-4 -96 -196 0
5 96 227 0
-5 -96 -227 0
6 96 258 0
-6 -96 -258 0
1 97 104 0
-1 -97 -104 0
2 97 135 0
-2 -97 -135 0
3 97 166 0
-3 -97 -166 0
4 97 197 0
-4 -97 -197 0
5 97 228 0
-5 -97 -228 0
6 97 259 0
-6 -97 -259 0
1 98 105 0
-1 -98 -105 0
2 98 136 0
-2 -98 -136 0
3 98 167 0
-3 -98 -167 0
4 98 198 0
-4 -98 -198 0
5 98 229 0
-5 -98 -229 0
6 98 260 0
-6 -98 -260 0
1 99 106 0
-1 -99 -106 0
2 99 137 0
-2 -99 -137 0
3 99 168 0
-3 -99 -168 0
4 99 199 0
-4 -99 -199 0
5 99 230 0
-5 -99 -230 0
6 99 261 0
-6 -99 -261 0
1 100 107 0
-1 -100 -107 0
2 100 138 0
-2 -100 -138 0
3 100 169 0
-3 -100 -169 0
4 100 200 0
-4 -100 -200 0
5 100 231 0
-5 -100 -231 0
6 100 262 0
-6 -100 -262 0
1 101 108 0
-1 -101 -108 0
2 101 139 0
-2 -101 -139 0
3 101 170 0
-3 -101 -170 0
4 101 201 0
-4 -101 -201 0
5 101 232 0
-5 -101 -232 0
6 101 263 0
-6 -101 -263 0
1 102 109 0
-1 -102 -109 0
2 102 140 0
-2 -102 -140 0
3 102 171 0
-3 -102 -171 0
4 102 202 0
-4 -102 -202 0
5 102 233 0
-5 -102 -233 0
6 102 264 0
-6 -102 -264 0
1 103 110 0
-1 -103 -110 0
2 103 141 0
-2 -103 -141 0
3 103 172 0
-3 -103 -172 0
4 103 203 0
-4 -103 -203 0
5 103 234 0
-5 -103 -234 0
6 103 265 0
-6 -103 -265 0
1 104 111 0
-1 -104 -111 0
2 104 142 0
-2 -104 -142 0
3 104 173 0
-3 -104 -173 0
4 104 204 0
-4 -104 -204 0
5 104 235 0
-5 -104 -235 0
6 104 266 0
-6 -104 -266 0
1 105 112 0
-1 -105 -112 0
2 105 143 0
-2 -105 -143 0
3 105 174 0
-3 -105 -174 0
4 105 205 0
-4 -105 -205 0
5 105 236 0
-5 -105 -236 0
6 105 267 0
-6 -105 -267 0
1 106 113 0
-1 -106 -113 0
2 106 144 0
-2 -106 -144 0
3 106 175 0
-3 -106 -175 0
4 106 206 0
-4 -106 -206 0
5 106 237 0
-5 -106 -237 0
1 107 114 0
-1 -107 -114 0
2 107 145 0
-2 -107 -145 0
3 107 176 0
-3 -107 -176 0
4 107 207 0
-4 -107 -207 0
5 107 238 0
-5 -107 -238 0
1 108 115 0
-1 -108 -115 0
2 108 146 0
-2 -108 -146 0
3 108 177 0
-3 -108 -177 0
4 108 208 0
-4 -108 -208 0
5 108 239 0
-5 -108 -239 0
1 109 116 0
-1 -109 -116 0
2 109 147 0
-2 -109 -147 0
3 109 178 0
-3 -109 -178 0
4 109 209 0
-4 -109 -209 0
5 109 240 0
-5 -109 -240 0
1 110 117 0
-1 -110 -117 0
2 110 148 0
-2 -110 -148 0
3 110 179 0
-3 -110 -179 0
4 110 210 0
-4 -110 -210 0
5 110 241 0
-5 -110 -241 0
1 111 118 0
-1 -111 -118 0
2 111 149 0
-2 -111 -149 0
3 111 180 0
-3 -111 -180 0
4 111 211 0
-4 -111 -211 0
5 111 242 0
-5 -111 -242 0
1 112 119 0
-1 -112 -119 0
2 112 150 0
-2 -112 -150 0
3 112 181 0
-3 -112 -181 0
4 112 212 0
-4 -112 -212 0
5 112 243 0
-5 -112 -243 0
1 113 120 0
-1 -113 -120 0
2 113 151 0
-2 -113 -151 0
3 113 182 0
-3 -113 -182 0
4 113 213 0
-4 -113 -213 0
5 113 244 0
-5 -113 -244 0
1 114 121 0
-1 -114 -121 0
2 114 152 0
-2 -114 -152 0
3 114 183 0
-3 -114 -183 0
4 114 214 0
-4 -114 -214 0
5 114 245 0
-5 -114 -245 0
1 115 122 0
-1 -115 -122 0
2 115 153 0
-2 -115 -153 0
3 115 184 0
-3 -115 -184 0
4 115 215 0
-4 -115 -215 0
5 115 246 0
-5 -115 -246 0
1 116 123 0
-1 -116 -123 0
2 116 154 0
-2 -116 -154 0
3 116 185 0
-3 -116 -185 0
4 116 216 0
-4 -116 -216 0
5 116 247 0
-5 -116 -247 0
1 117 124 0
-1 -117 -124 0
2 117 155 0
-2 -117 -155 0
3 117 186 0
-3 -117 -186 0
4 117 217 0
-4 -117 -217 0
5 117 248 0
-5 -117 -248 0
1 118 125 0
-1 -118 -125 0
2 118 156 0
-2 -118 -156 0
3 118 187 0
-3 -118 -187 0
4 118 218 0
-4 -118 -218 0
5 118 249 0
-5 -118 -249 0
1 119 126 0
-1 -119 -126 0
2 119 157 0
-2 -119 -157 0
3 119 188 0
-3 -119 -188 0
4 119 219 0
-4 -119 -219 0
5 119 250 0
-5 -119 -250 0
1 120 127 0
-1 -120 -127 0
2 120 158 0
-2 -120 -158 0
3 120 189 0
-3 -120 -189 0
4 120 220 0
-4 -120 -220 0
5 120 251 0
-5 -120 -251 0
1 121 128 0
-1 -121 -128 0
2 121 159 0
-2 -121 -159 0
3 121 190 0
-3 -121 -190 0
4 121 221 0
-4 -121 -221 0
5 121 252 0
-5 -121 -252 0
1 122 129 0
-1 -122 -129 0
2 122 160 0
-2 -122 -160 0
3 122 191 0
-3 -122 -191 0
4 122 222 0
-4 -122 -222 0
5 122 253 0
-5 -122 -253 0
1 123 130 0
-1 -123 -130 0
2 123 161 0
-2 -123 -161 0
3 123 192 0
-3 -123 -192 0
4 123 223 0
-4 -123 -223 0
5 123 254 0
-5 -123 -254 0
1 124 131 0
-1 -124 -131 0
2 124 162 0
-2 -124 -162 0
3 124 193 0
-3 -124 -193 0
4 124 224 0
-4 -124 -224 0
5 124 255 0
-5 -124 -255 0
1 125 132 0
-1 -125 -132 0
2 125 163 0
-2 -125 -163 0
3 125 194 0
-3 -125 -194 0
4 125 225 0
-4 -125 -225 0
5 125 256 0
-5 -125 -256 0
1 126 133 0
-1 -126 -133 0
2 126 164 0
-2 -126 -164 0
3 126 195 0
-3 -126 -195 0
4 126 226 0
-4 -126 -226 0
5 126 257 0
-5 -126 -257 0
1 127 134 0
-1 -127 -134 0
2 127 165 0
-2 -127 -165 0
3 127 196 0
-3 -127 -196 0
4 127 227 0
-4 -127 -227 0
5 127 258 0
-5 -127 -258 0
1 128 135 0
-1 -128 -135 0
2 128 166 0
-2 -128 -166 0
3 128 197 0
-3 -128 -197 0
4 128 228 0
-4 -128 -228 0
5 128 259 0
-5 -128 -259 0
1 129 136 0
-1 -129 -136 0
2 129 167 0
-2 -129 -167 0
3 129 198 0
-3 -129 -198 0
4 129 229 0
-4 -129 -229 0
5 129 260 0
-5 -129 -260 0
1 130 137 0
-1 -130 -137 0
2 130 168 0
-2 -130 -168 0
3 130 199 0
-3 -130 -199 0
4 130 230 0
-4 -130 -230 0
5 130 261 0
-5 -130 -261 0
1 131 138 0
-1 -131 -138 0
2 131 169 0
-2 -131 -169 0
3 131 200 0
-3 -131 -200 0
4 131 231 0
-4 -131 -231 0
5 131 262 0
-5 -131 -262 0
1 132 139 0
-1 -132 -139 0
2 132 170 0
-2 -132 -170 0
3 132 201 0
-3 -132 -201 0
4 132 232 0
-4 -132 -232 0
5 132 263 0
-5 -132 -263 0
1 133 140 0
-1 -133 -140 0
2 133 171 0
-2 -133 -171 0
3 133 202 0
-3 -133 -202 0
4 133 233 0
-4 -133 -233 0
5 133 264 0
-5 -133 -264 0
1 134 141 0
-1 -134 -141 0
2 134 172 0
-2 -134 -172 0
3 134 203 0
-3 -134 -203 0
4 134 234 0
-4 -134 -234 0
5 134 265 0
-5 -134 -265 0
1 135 142 0
-1 -135 -142 0
2 135 173 0
-2 -135 -173 0
3 135 204 0
-3 -135 -204 0
4 135 235 0
-4 -135 -235 0
5 135 266 0
-5 -135 -266 0
1 136 143 0
-1 -136 -143 0
2 136 174 0
-2 -136 -174 0
3 136 205 0
-3 -136 -205 0
4 136 236 0
-4 -136 -236 0
5 136 267 0
-5 -136 -267 0
1 137 144 0
-1 -137 -144 0
2 137 175 0
-2 -137 -175 0
3 137 206 0
-3 -137 -206 0
4 137 237 0
-4 -137 -237 0
1 138 145 0
-1 -138 -145 0
2 138 176 0
-2 -138 -176 0
3 138 207 0
-3 -138 -207 0
4 138 238 0
-4 -138 -238 0
1 139 146 0
-1 -139 -146 0
2 139 177 0
-2 -139 -177 0
3 139 208 0
-3 -139 -208 0
4 139 239 0
-4 -139 -239 0
1 140 147 0
-1 -140 -147 0
2 140 178 0
-2 -140 -178 0
3 140 209 0
-3 -140 -209 0
4 140 240 0
-4 -140 -240 0
1 141 148 0
-1 -141 -148 0
2 141 179 0
-2 -141 -179 0
3 141 210 0
-3 -141 -210 0
4 141 241 0
-4 -141 -241 0
1 142 149 0
-1 -142 -149 0
2 142 180 0
-2 -142 -180 0
3 142 211 0
-3 -142 -211 0
4 142 242 0
-4 -142 -242 0
1 143 150 0
-1 -143 -150 0
2 143 181 0
-2 -143 -181 0
3 143 212 0
-3 -143 -212 0
4 143 243 0
-4 -143 -243 0
1 144 151 0
-1 -144 -151 0
2 144 182 0
-2 -144 -182 0
3 144 213 0
-3 -144 -213 0
4 144 244 0
-4 -144 -244 0
1 145 152 0
-1 -145 -152 0
2 145 183 0
-2 -145 -183 0
3 145 214 0
-3 -145 -214 0
4 145 245 0
-4 -145 -245 0
1 146 153 0
-1 -146 -153 0
2 146 184 0
-2 -146 -184 0
3 146 215 0
-3 -146 -215 0
4 146 246 0
-4 -146 -246 0
1 147 154 0
-1 -147 -154 0
2 147 185 0
-2 -147 -185 0
3 147 216 0
-3 -147 -216 0
4 147 247 0
-4 -147 -247 0
1 148 155 0
-1 -148 -155 0
2 148 186 0
-2 -148 -186 0
3 148 217 0
-3 -148 -217 0
4 148 248 0
-4 -148 -248 0
1 149 156 0
-1 -149 -156 0
2 149 187 0
-2 -149 -187 0
3 149 218 0
-3 -149 -218 0
4 149 249 0
-4 -149 -249 0
1 150 157 0
-1 -150 -157 0
2 150 188 0
-2 -150 -188 0
3 150 219 0
-3 -150 -219 0
4 150 250 0
-4 -150 -250 0
1 151 158 0
-1 -151 -158 0
2 151 189 0
-2 -151 -189 0
3 151 220 0
-3 -151 -220 0
4 151 251 0
-4 -151 -251 0
1 152 159 0
-1 -152 -159 0
2 152 190 0
-2 -152 -190 0
3 152 221 0
-3 -152 -221 0
4 152 252 0
-4 -152 -252 0
1 153 160 0
-1 -153 -160 0
2 153 191 0
-2 -153 -191 0
3 153 222 0
-3 -153 -222 0
4 153 253 0
-4 -153 -253 0
1 154 161 0
-1 -154 -161 0
2 154 192 0
-2 -154 -192 0
3 154 223 0
-3 -154 -223 0
4 154 254 0
-4 -154 -254 0
1 155 162 0
-1 -155 -162 0
2 155 193 0
-2 -155 -193 0
3 155 224 0
-3 -155 -224 0
4 155 255 0
-4 -155 -255 0
1 156 163 0
-1 -156 -163 0
2 156 194 0
-2 -156 -194 0
3 156 225 0
-3 -156 -225 0
4 156 256 0
-4 -156 -256 0
1 157 164 0
-1 -157 -164 0
2 157 195 0
-2 -157 -195 0
3 157 226 0
-3 -157 -226 0
4 157 257 0
-4 -157 -257 0
1 158 165 0
-1 -158 -165 0
2 158 196 0
-2 -158 -196 0
3 158 227 0
-3 -158 -227 0
4 158 258 0
-4 -158 -258 0
1 159 166 0
-1 -159 -166 0
2 159 197 0
-2 -159 -197 0
3 159 228 0
-3 -159 -228 0
4 159 259 0
-4 -159 -259 0
1 160 167 0
-1 -160 -167 0
2 160 198 0
-2 -160 -198 0
3 160 229 0
-3 -160 -229 0
4 160 260 0
-4 -160 -260 0
1 161 168 0
-1 -161 -168 0
2 161 199 0
-2 -161 -199 0
3 161 230 0
-3 -161 -230 0
4 161 261 0
-4 -161 -261 0
1 162 169 0
-1 -162 -169 0
2 162 200 0
-2 -162 -200 0
3 162 231 0
-3 -162 -231 0
4 162 262 0
-4 -162 -262 0
1 163 170 0
-1 -163 -170 0
2 163 201 0
-2 -163 -201 0
3 163 232 0
-3 -163 -232 0
4 163 263 0
-4 -163 -263 0
1 164 171 0
-1 -164 -171 0
2 164 202 0
-2 -164 -202 0
3 164 233 0
-3 -164 -233 0
4 164 264 0
-4 -164 -264 0
1 165 172 0
-1 -165 -172 0
2 165 203 0
-2 -165 -203 0
3 165 234 0
-3 -165 -234 0
4 165 265 0
-4 -165 -265 0
1 166 173 0
-1 -166 -173 0
2 166 204 0
-2 -166 -204 0
3 166 235 0
-3 -166 -235 0
4 166 266 0
-4 -166 -266 0
1 167 174 0
-1 -167 -174 0
2 167 205 0
-2 -167 -205 0
3 167 236 0
-3 -167 -236 0
4 167 267 0
-4 -167 -267 0
1 168 175 0
-1 -168 -175 0
2 168 206 0
-2 -168 -206 0
3 168 237 0
-3 -168 -237 0
1 169 176 0
-1 -169 -176 0
2 169 207 0
-2 -169 -207 0
3 169 238 0
-3 -169 -238 0
1 170 177 0
-1 -170 -177 0
2 170 208 0
-2 -170 -208 0
3 170 239 0
-3 -170 -239 0
1 171 178 0
-1 -171 -178 0
2 171 209 0
-2 -171 -209 0
3 171 240 0
-3 -171 -240 0
1 172 179 0
-1 -172 -179 0
2 172 210 0
-2 -172 -210 0
3 172 241 0
-3 -172 -241 0
1 173 180 0
-1 -173 -180 0
2 173 211 0
-2 -173 -211 0
3 173 242 0
-3 -173 -242 0
1 174 181 0
-1 -174 -181 0
2 174 212 0
-2 -174 -212 0
3 174 243 0
-3 -174 -243 0
1 175 182 0
-1 -175 -182 0
2 175 213 0
-2 -175 -213 0
3 175 244 0
-3 -175 -244 0
1 176 183 0
-1 -176 -183 0
2 176 214 0
-2 -176 -214 0
3 176 245 0
-3 -176 -245 0
1 177 184 0
-1 -177 -184 0
2 177 215 0
-2 -177 -215 0
3 177 246 0
-3 -177 -246 0
1 178 185 0
-1 -178 -185 0
2 178 216 0
-2 -178 -216 0
3 178 247 0
-3 -178 -247 0
1 179 186 0
-1 -179 -186 0
2 179 217 0
-2 -179 -217 0
3 179 248 0
-3 -179 -248 0
1 180 187 0
-1 -180 -187 0
2 180 218 0
-2 -180 -218 0
3 180 249 0
-3 -180 -249 0
1 181 188 0
-1 -181 -188 0
2 181 219 0
-2 -181 -219 0
3 181 250 0
-3 -181 -250 0
1 182 189 0
-1 -182 -189 0
2 182 220 0
-2 -182 -220 0
3 182 251 0
-3 -182 -251 0
1 183 190 0
-1 -183 -190 0
2 183 221 0
-2 -183 -221 0
3 183 252 0
-3 -183 -252 0
1 184 191 0
-1 -184 -191 0
2 184 222 0
-2 -184 -222 0
3 184 253 0
-3 -184 -253 0
1 185 192 0
-1 -185 -192 0
2 185 223 0
-2 -185 -223 0
3 185 254 0
-3 -185 -254 0
1 186 193 0
-1 -186 -193 0
2 186 224 0
-2 -186 -224 0
3 186 255 0
-3 -186 -255 0
1 187 194 0
-1 -187 -194 0
2 187 225 0
-2 -187 -225 0
3 187 256 0
-3 -187 -256 0
1 188 195 0
-1 -188 -195 0
2 188 226 0
-2 -188 -226 0
3 188 257 0
-3 -188 -257 0
1 189 196 0
-1 -189 -196 0
2 189 227 0
-2 -189 -227 0
3 189 258 0
-3 -189 -258 0
1 190 197 0
-1 -190 -197 0
2 190 228 0
-2 -190 -228 0
3 190 259 0
-3 -190 -259 0
1 191 198 0
-1 -191 -198 0
2 191 229 0
-2 -191 -229 0
3 191 260 0
-3 -191 -260 0
1 192 199 0
-1 -192 -199 0
2 192 230 0
-2 -192 -230 0
3 192 261 0
-3 -192 -261 0
1 193 200 0
-1 -193 -200 0
2 193 231 0
-2 -193 -231 0
3 193 262 0
-3 -193 -262 0
1 194 201 0
-1 -194 -201 0
2 194 232 0
-2 -194 -232 0
3 194 263 0
-3 -194 -263 0
1 195 202 0
-1 -195 -202 0
2 195 233 0
-2 -195 -233 0
3 195 264 0
-3 -195 -264 0
1 196 203 0
-1 -196 -203 0
2 196 234 0
-2 -196 -234 0
3 196 265 0
-3 -196 -265 0
1 197 204 0
-1 -197 -204 0
2 197 235 0
-2 -197 -235 0
3 197 266 0
-3 -197 -266 0
1 198 205 0
-1 -198 -205 0
2 198 236 0
-2 -198 -236 0
3 198 267 0
-3 -198 -267 0
1 199 206 0
-1 -199 -206 0
2 199 237 0
-2 -199 -237 0
1 200 207 0
-1 -200 -207 0
2 200 238 0
-2 -200 -238 0
1 201 208 0
-1 -201 -208 0
2 201 239 0
-2 -201 -239 0
1 202 209 0
-1 -202 -209 0
2 202 240 0
-2 -202 -240 0
1 203 210 0
-1 -203 -210 0
2 203 241 0
-2 -203 -241 0
1 204 211 0
-1 -204 -211 0
2 204 242 0
-2 -204 -242 0
1 205 212 0
-1 -205 -212 0
2 205 243 0
-2 -205 -243 0
1 206 213 0
-1 -206 -213 0
2 206 244 0
-2 -206 -244 0
1 207 214 0
-1 -207 -214 0
2 207 245 0
-2 -207 -245 0
1 208 215 0
-1 -208 -215 0
2 208 246 0
-2 -208 -246 0
1 209 216 0
-1 -209 -216 0
2 209 247 0
-2 -209 -247 0
1 210 217 0
-1 -210 -217 0
2 210 248 0
-2 -210 -248 0
1 211 218 0
-1 -211 -218 0
2 211 249 0
-2 -211 -249 0
1 212 219 0
-1 -212 -219 0
2 212 250 0
-2 -212 -250 0
1 213 220 0
-1 -213 -220 0
2 213 251 0
-2 -213 -251 0
1 214 221 0
-1 -214 -221 0
2 214 252 0
-2 -214 -252 0
1 215 222 0
-1 -215 -222 0
2 215 253 0
-2 -215 -253 0
1 216 223 0
-1 -216 -223 0
2 216 254 0
-2 -216 -254 0
1 217 224 0
-1 -217 -224 0
2 217 255 0
-2 -217 -255 0
1 218 225 0
-1 -218 -225 0
2 218 256 0
-2 -218 -256 0
1 219 226 0
-1 -219 -226 0
2 219 257 0
-2 -219 -257 0
1 220 227 0
-1 -220 -227 0
2 220 258 0
-2 -220 -258 0
1 221 228 0
-1 -221 -228 0
2 221 259 0
-2 -221 -259 0
1 222 229 0
-1 -222 -229 0
2 222 260 0
-2 -222 -260 0
1 223 230 0
-1 -223 -230 0
2 223 261 0
-2 -223 -261 0
1 224 231 0
-1 -224 -231 0
2 224 262 0
-2 -224 -262 0
1 225 232 0
-1 -225 -232 0
2 225 263 0
-2 -225 -263 0
1 226 233 0
-1 -226 -233 0
2 226 264 0
-2 -226 -264 0
1 227 234 0
-1 -227 -234 0
2 227 265 0
-2 -227 -265 0
1 228 235 0
-1 -228 -235 0
2 228 266 0
-2 -228 -266 0
1 229 236 0
-1 -229 -236 0
2 229 267 0
-2 -229 -267 0
1 230 237 0
-1 -230 -237 0
1 231 238 0
-1 -231 -238 0
1 232 239 0
-1 -232 -239 0
1 233 240 0
-1 -233 -240 0
1 234 241 0
-1 -234 -241 0
1 235 242 0
-1 -235 -242 0
1 236 243 0
-1 -236 -243 0
1 237 244 0
-1 -237 -244 0
1 238 245 0
-1 -238 -245 0
1 239 246 0
-1 -239 -246 0
1 240 247 0
-1 -240 -247 0
1 241 248 0
-1 -241 -248 0
1 242 249 0
-1 -242 -249 0
1 243 250 0
-1 -243 -250 0
1 244 251 0
-1 -244 -251 0
1 245 252 0
-1 -245 -252 0
1 246 253 0
-1 -246 -253 0
1 247 254 0
-1 -247 -254 0
1 248 255 0
-1 -248 -255 0
1 249 256 0
-1 -249 -256 0
1 250 257 0
-1 -250 -257 0
1 251 258 0
-1 -251 -258 0
1 252 259 0
-1 -252 -259 0
1 253 260 0
-1 -253 -260 0
1 254 261 0
-1 -254 -261 0
1 255 262 0
-1 -255 -262 0
1 256 263 0
-1 -256 -263 0
1 257 264 0
-1 -257 -264 0
1 258 265 0
-1 -258 -265 0
1 259 266 0
-1 -259 -266 0
1 260 267 0
-1 -260 -267 0
