certificates/rado_a31_c24_N267.drat
1 -263 9 0
-1 -267 0
9 -49 1 0
-266 -267 0
-267 0
1 9 0
d -49 1 9 0
d -263 1 9 0
9 0
-264 0
-1 0
8 0
260 0
257 0
-232 0
-263 0
-233 0
-36 0
-5 0
-33 0
-2 0
239 0
225 0
256 0
240 0
226 0
195 0
43 0
29 0
74 0
132 0
133 0
12 0
136 0
101 0
102 0
167 0
164 0
40 0
71 0
26 0
39 0
194 0
229 0
-15 0
-32 0
-16 0
-253 0
-236 0
-250 0
22 0
146 0
53 0
70 0
25 0
163 0
23 0
54 0
147 0
246 0
122 0
215 0
243 0
198 0
105 0
119 0
212 0
0
